10 45
1 2 296
1 3 133
1 4 389
1 5 311
1 6 360
1 7 558
1 8 260
1 9 168
1 10 291
2 3 262
2 4 272
2 5 445
2 6 564
2 7 645
2 8 450
2 9 280
2 10 82
3 4 219
3 5 201
3 6 337
3 7 449
3 8 223
3 9 287
3 10 193
4 5 164
4 6 459
4 7 377
4 8 277
4 9 429
4 10 194
5 6 316 
5 7 243 
5 8 140 
5 9 467 
5 10 367
6 7 366 
6 8 170 
6 9 508 
6 10 531
7 8 258 
7 9 711 
7 10 568
8 9 427 
8 10 416
9 10 343